src/EPIC_poongsan/src/EPIC/src/global_planner/utils/lkh_tsp_solver/resource/single.tsp
NAME : single
TYPE : ATSP
DIMENSION : 4
EDGE_WEIGHT_TYPE : EXPLICIT
EDGE_WEIGHT_FORMAT : FULL_MATRIX
EDGE_WEIGHT_SECTION
0 149 2543 5768 
199565 0 2693 5918 
199029 2693 0 3225 
198384 5918 3225 0 
EOF