src/EPIC_poongsan/src/EPIC/src/global_planner/utils/lkh_tsp_solver/resource/single.txt
NAME : single.204451.tour
COMMENT : Length = 204451
COMMENT : Found by LKH [Keld Helsgaun] Mon Jun 22 23:06:11 2026
TYPE : TOUR
DIMENSION : 4
TOUR_SECTION
1
2
3
4
-1
EOF
